language ESSENCE' 1.0

letting jobs = 102
letting horizon = 789
letting resourcesRenew = 2
letting resourcesNonrenew = 2
letting resourceLimits = [20, 26, 401, 366]
letting successors = [[2, 3, 4, 6, 7, 9, 10, 11, 12, 14, 16, 22], [40, 35, 33, 32, 26, 23, 21, 13, 8], [40, 32, 26, 24, 21, 15, 5], [42, 40, 38, 35, 34, 32, 31, 29, 23, 20, 19], [57, 52, 46, 43, 42, 38, 36, 35, 34, 28, 23, 17], [44, 43, 42, 34, 31, 29, 28, 26, 13], [52, 42, 41, 39, 34, 31, 29, 25, 23, 18], [52, 51, 45, 38, 37, 31, 29, 15], [57, 46, 43, 39, 35, 34, 33, 24, 23], [57, 46, 45, 40, 39, 37, 35, 34, 33, 30, 24], [64, 51, 50, 46, 44, 42, 29, 28, 20], [45, 43, 42, 37, 35, 34, 30, 29, 24], [57, 55, 54, 46, 45, 41, 39, 38, 30, 24], [55, 54, 52, 50, 49, 48, 45, 44, 30, 28, 26], [58, 42, 41, 34, 27, 25], [68, 64, 59, 57, 54, 53, 52, 50, 46, 42, 41, 34, 28], [59, 55, 54, 49, 45, 39, 37, 33, 30], [70, 67, 59, 58, 57, 56, 54, 53, 50, 49, 46, 43, 40, 37], [74, 70, 69, 66, 65, 64, 62, 57, 56, 54, 53, 52, 46, 45, 44, 43, 41], [68, 61, 56, 53, 52, 48, 45, 43, 26], [85, 74, 67, 65, 63, 58, 57, 56, 55, 53, 51, 50, 47, 44, 37], [74, 70, 64, 63, 62, 59, 58, 57, 56, 52, 49, 48, 47, 46, 45, 44], [55, 54, 50, 47, 45, 37, 30], [74, 70, 69, 68, 67, 66, 65, 64, 63, 62, 61, 59, 58, 56, 52, 50, 49, 48], [85, 69, 67, 65, 64, 62, 59, 55, 50, 46, 43], [74, 69, 59, 58, 57, 41, 39], [74, 73, 63, 57, 53, 47, 44, 39], [85, 66, 61, 58, 56, 47, 39], [101, 85, 84, 77, 76, 73, 71, 69, 68, 66, 65, 61, 60, 57, 54], [95, 94, 81, 74, 70, 68, 65, 64, 61, 60, 56, 53, 51], [101, 85, 83, 72, 70, 69, 68, 67, 62, 60, 59, 58, 46], [84, 74, 72, 69, 68, 65, 64, 61, 56, 50, 49], [83, 71, 65, 63, 44, 41], [84, 70, 69, 66, 63, 62, 56, 49, 48], [96, 85, 74, 71, 64, 58, 54, 47, 44], [81, 77, 70, 65, 62, 61, 60, 59, 56, 45], [100, 96, 84, 82, 81, 77, 76, 75, 73, 72, 71, 69, 66, 64, 62, 61], [101, 100, 98, 95, 94, 93, 85, 83, 82, 81, 80, 77, 76, 71, 70, 65, 61], [101, 95, 94, 84, 82, 81, 79, 77, 76, 72, 70, 65, 62, 60], [100, 94, 85, 84, 80, 71, 68, 65, 63, 55], [96, 88, 85, 84, 82, 72, 67, 47], [101, 100, 96, 94, 93, 80, 77, 75, 74, 73, 72, 69, 55], [96, 94, 93, 84, 81, 79, 77, 76, 73, 72, 63, 60], [100, 98, 95, 94, 93, 81, 80, 77, 76, 75, 68, 61], [101, 98, 97, 94, 93, 92, 91, 90, 84, 83, 80, 76, 75, 72, 71], [100, 98, 96, 93, 88, 81, 80, 77, 76, 75, 61], [95, 94, 93, 89, 81, 79, 77, 76, 60], [100, 98, 96, 93, 92, 91, 89, 88, 82, 80, 77, 75, 72, 71], [100, 96, 95, 94, 93, 92, 89, 81, 80, 76, 75, 73, 71], [100, 99, 98, 96, 94, 93, 92, 87, 82, 79, 77, 75, 73], [99, 98, 93, 91, 90, 84, 82, 80, 77, 76, 72, 71], [100, 98, 97, 96, 95, 92, 91, 89, 85, 80, 75, 73], [99, 98, 96, 93, 92, 90, 88, 80, 79, 76, 75, 72], [100, 98, 95, 93, 92, 91, 89, 81, 79, 78, 72], [95, 92, 91, 90, 89, 87, 83, 82, 79, 76], [101, 99, 98, 93, 91, 89, 83, 80, 71], [100, 93, 91, 89, 87, 83, 82, 81, 79], [98, 93, 89, 87, 82, 79, 78, 73], [99, 95, 94, 93, 92, 91, 89, 88, 87, 78], [100, 99, 98, 92, 91, 90, 87, 80, 75], [99, 92, 91, 90, 89, 87, 79, 78], [93, 92, 91, 89, 88, 87, 80, 78], [101, 99, 98, 97, 89, 88, 87, 86], [98, 90, 87, 83, 79, 78], [96, 89, 88, 87, 75], [94, 93, 92, 90, 89, 86], [99, 95, 91, 87, 78], [99, 88, 87, 86], [95, 91, 90, 86], [96, 87, 86], [87, 79], [87, 86], [90, 88], [88, 86], [78], [78], [78], [86], [86], [86], [90], [97], [88], [89], [87], [102], [102], [102], [102], [102], [102], [102], [102], [102], [102], [102], [102], [102], [102], [102], [102], []]
letting durations = [[0], [1, 2, 4], [2, 5, 9], [1, 5, 8], [4, 8, 10], [5, 7, 9], [3, 5, 8], [8, 9, 10], [6, 8, 10], [1, 9, 10], [2, 9, 10], [5, 10, 10], [1, 5, 9], [3, 4, 10], [5, 7, 8], [4, 6, 10], [2, 9, 9], [2, 5, 6], [2, 3, 5], [7, 9, 10], [1, 2, 7], [1, 4, 6], [2, 4, 5], [2, 5, 8], [6, 7, 10], [2, 8, 9], [6, 6, 7], [1, 3, 4], [4, 9, 10], [2, 3, 4], [3, 8, 8], [3, 4, 10], [3, 4, 8], [4, 6, 6], [4, 9, 10], [1, 2, 10], [2, 4, 5], [1, 8, 8], [2, 6, 6], [3, 5, 7], [6, 6, 10], [5, 8, 9], [7, 10, 10], [6, 7, 10], [1, 5, 7], [3, 4, 5], [1, 2, 8], [3, 7, 10], [2, 6, 7], [7, 9, 9], [1, 2, 3], [1, 4, 10], [2, 5, 7], [2, 10, 10], [1, 8, 10], [1, 2, 4], [1, 1, 10], [1, 2, 9], [1, 2, 2], [4, 4, 5], [2, 4, 10], [3, 8, 10], [2, 3, 5], [1, 2, 2], [5, 9, 10], [6, 7, 9], [4, 5, 7], [6, 6, 6], [1, 2, 9], [2, 5, 10], [1, 4, 4], [4, 7, 8], [1, 4, 5], [4, 8, 9], [9, 9, 10], [1, 4, 9], [6, 8, 9], [4, 6, 7], [2, 3, 4], [6, 7, 9], [3, 8, 10], [1, 6, 7], [1, 5, 10], [4, 5, 9], [1, 4, 4], [2, 4, 10], [2, 3, 4], [1, 3, 9], [1, 3, 7], [1, 7, 7], [3, 7, 10], [2, 3, 3], [1, 3, 9], [1, 3, 8], [2, 3, 9], [6, 7, 10], [5, 5, 10], [1, 8, 9], [3, 5, 6], [2, 2, 8], [3, 10, 10], [0]]
letting resourceUsage = [[[0, 0, 0, 0]], [[2, 0, 4, 0], [2, 0, 0, 5], [1, 0, 0, 4]], [[0, 3, 7, 0], [2, 0, 6, 0], [0, 3, 0, 6]], [[4, 0, 5, 0], [3, 0, 0, 6], [0, 3, 3, 0]], [[0, 4, 0, 7], [3, 0, 0, 7], [3, 0, 0, 6]], [[0, 3, 7, 0], [0, 3, 4, 0], [0, 3, 1, 0]], [[0, 5, 8, 0], [4, 0, 7, 0], [0, 3, 0, 3]], [[4, 0, 0, 9], [4, 0, 0, 7], [0, 2, 5, 0]], [[0, 1, 0, 6], [1, 0, 8, 0], [0, 1, 7, 0]], [[2, 0, 0, 7], [0, 5, 4, 0], [1, 0, 4, 0]], [[0, 3, 0, 5], [1, 0, 0, 4], [0, 3, 6, 0]], [[0, 4, 0, 1], [0, 2, 6, 0], [2, 0, 6, 0]], [[3, 0, 9, 0], [0, 5, 0, 4], [2, 0, 7, 0]], [[0, 5, 0, 10], [2, 0, 3, 0], [0, 3, 0, 3]], [[0, 4, 0, 5], [0, 3, 4, 0], [0, 2, 0, 1]], [[3, 0, 5, 0], [0, 1, 0, 7], [3, 0, 1, 0]], [[0, 4, 9, 0], [2, 0, 8, 0], [0, 3, 0, 7]], [[0, 1, 4, 0], [3, 0, 3, 0], [2, 0, 2, 0]], [[5, 0, 0, 8], [0, 1, 4, 0], [3, 0, 3, 0]], [[5, 0, 0, 9], [4, 0, 9, 0], [3, 0, 0, 5]], [[3, 0, 0, 6], [0, 3, 0, 3], [3, 0, 3, 0]], [[4, 0, 7, 0], [0, 3, 0, 7], [1, 0, 0, 7]], [[4, 0, 7, 0], [2, 0, 5, 0], [1, 0, 3, 0]], [[0, 4, 4, 0], [3, 0, 3, 0], [0, 3, 2, 0]], [[0, 2, 9, 0], [1, 0, 0, 3], [1, 0, 0, 2]], [[2, 0, 0, 5], [0, 4, 0, 3], [2, 0, 6, 0]], [[2, 0, 5, 0], [1, 0, 0, 7], [1, 0, 5, 0]], [[0, 4, 3, 0], [0, 2, 0, 4], [0, 2, 1, 0]], [[1, 0, 6, 0], [1, 0, 4, 0], [1, 0, 3, 0]], [[4, 0, 0, 3], [0, 2, 3, 0], [0, 1, 2, 0]], [[0, 3, 0, 9], [3, 0, 4, 0], [2, 0, 0, 8]], [[0, 3, 6, 0], [1, 0, 6, 0], [0, 2, 0, 5]], [[0, 3, 0, 10], [0, 2, 5, 0], [0, 2, 0, 9]], [[0, 5, 4, 0], [0, 4, 4, 0], [1, 0, 2, 0]], [[5, 0, 0, 9], [0, 4, 0, 7], [0, 4, 3, 0]], [[0, 3, 6, 0], [0, 3, 0, 2], [2, 0, 1, 0]], [[0, 5, 2, 0], [4, 0, 2, 0], [0, 2, 0, 2]], [[4, 0, 0, 5], [0, 1, 0, 3], [3, 0, 5, 0]], [[0, 3, 0, 1], [0, 1, 0, 1], [2, 0, 0, 1]], [[0, 5, 0, 5], [3, 0, 2, 0], [2, 0, 0, 5]], [[1, 0, 0, 5], [1, 0, 5, 0], [1, 0, 3, 0]], [[0, 4, 0, 3], [0, 3, 0, 2], [3, 0, 5, 0]], [[0, 4, 0, 2], [3, 0, 0, 2], [0, 2, 0, 2]], [[0, 4, 3, 0], [2, 0, 0, 7], [2, 0, 0, 3]], [[0, 3, 0, 7], [0, 3, 3, 0], [3, 0, 0, 7]], [[3, 0, 9, 0], [0, 4, 0, 5], [0, 4, 0, 4]], [[3, 0, 7, 0], [0, 3, 0, 3], [2, 0, 0, 2]], [[4, 0, 0, 8], [0, 2, 0, 4], [0, 2, 0, 3]], [[0, 5, 0, 7], [3, 0, 7, 0], [3, 0, 0, 3]], [[2, 0, 0, 4], [1, 0, 2, 0], [0, 3, 0, 3]], [[4, 0, 7, 0], [0, 4, 0, 6], [4, 0, 0, 5]], [[5, 0, 8, 0], [0, 1, 0, 3], [0, 1, 0, 2]], [[3, 0, 8, 0], [0, 2, 7, 0], [0, 2, 0, 7]], [[5, 0, 5, 0], [4, 0, 0, 8], [0, 2, 3, 0]], [[2, 0, 7, 0], [0, 1, 6, 0], [1, 0, 0, 4]], [[5, 0, 8, 0], [0, 3, 0, 4], [0, 2, 0, 3]], [[4, 0, 5, 0], [0, 1, 0, 5], [0, 1, 0, 4]], [[4, 0, 0, 5], [0, 2, 0, 5], [0, 1, 6, 0]], [[0, 5, 9, 0], [0, 4, 0, 7], [0, 3, 2, 0]], [[0, 3, 0, 7], [1, 0, 4, 0], [0, 2, 0, 3]], [[0, 5, 7, 0], [2, 0, 0, 8], [2, 0, 0, 5]], [[0, 3, 9, 0], [0, 2, 6, 0], [2, 0, 4, 0]], [[2, 0, 0, 4], [2, 0, 0, 2], [0, 3, 0, 2]], [[0, 1, 7, 0], [3, 0, 0, 7], [0, 1, 4, 0]], [[5, 0, 3, 0], [5, 0, 2, 0], [0, 1, 2, 0]], [[0, 2, 0, 6], [1, 0, 0, 4], [0, 2, 4, 0]], [[5, 0, 5, 0], [5, 0, 4, 0], [0, 4, 0, 6]], [[0, 4, 6, 0], [2, 0, 4, 0], [2, 0, 0, 4]], [[3, 0, 5, 0], [2, 0, 0, 1], [1, 0, 0, 1]], [[3, 0, 10, 0], [2, 0, 0, 3], [0, 1, 0, 2]], [[1, 0, 0, 3], [1, 0, 0, 2], [0, 1, 0, 3]], [[4, 0, 3, 0], [2, 0, 3, 0], [2, 0, 2, 0]], [[0, 3, 4, 0], [2, 0, 3, 0], [0, 1, 3, 0]], [[0, 4, 0, 3], [0, 4, 0, 2], [1, 0, 8, 0]], [[3, 0, 0, 5], [2, 0, 7, 0], [2, 0, 6, 0]], [[0, 4, 2, 0], [0, 3, 0, 7], [3, 0, 1, 0]], [[0, 4, 5, 0], [0, 3, 5, 0], [0, 3, 0, 4]], [[0, 5, 0, 5], [0, 4, 0, 5], [0, 4, 3, 0]], [[0, 2, 0, 8], [3, 0, 0, 8], [3, 0, 0, 7]], [[0, 5, 8, 0], [0, 4, 5, 0], [0, 3, 0, 7]], [[0, 3, 0, 8], [0, 1, 6, 0], [0, 1, 0, 6]], [[0, 3, 9, 0], [0, 3, 0, 4], [2, 0, 9, 0]], [[2, 0, 3, 0], [1, 0, 3, 0], [0, 2, 1, 0]], [[2, 0, 2, 0], [1, 0, 2, 0], [0, 4, 0, 1]], [[0, 1, 0, 8], [1, 0, 6, 0], [0, 1, 0, 4]], [[0, 2, 0, 7], [3, 0, 5, 0], [3, 0, 0, 7]], [[5, 0, 0, 8], [0, 3, 3, 0], [2, 0, 0, 6]], [[5, 0, 0, 7], [0, 4, 0, 7], [0, 4, 9, 0]], [[1, 0, 0, 6], [0, 3, 8, 0], [1, 0, 8, 0]], [[5, 0, 8, 0], [0, 1, 7, 0], [1, 0, 0, 3]], [[3, 0, 0, 3], [0, 3, 5, 0], [0, 1, 3, 0]], [[0, 4, 8, 0], [0, 3, 0, 2], [2, 0, 0, 1]], [[0, 2, 0, 5], [0, 2, 0, 3], [0, 1, 0, 3]], [[0, 4, 0, 8], [3, 0, 0, 8], [0, 3, 4, 0]], [[3, 0, 10, 0], [3, 0, 7, 0], [2, 0, 1, 0]], [[0, 2, 9, 0], [0, 2, 0, 3], [0, 2, 8, 0]], [[2, 0, 5, 0], [0, 3, 0, 5], [2, 0, 4, 0]], [[0, 4, 6, 0], [4, 0, 0, 5], [3, 0, 0, 4]], [[2, 0, 7, 0], [0, 3, 0, 6], [0, 1, 5, 0]], [[4, 0, 7, 0], [2, 0, 0, 9], [2, 0, 0, 8]], [[0, 4, 0, 4], [3, 0, 0, 2], [3, 0, 6, 0]], [[0, 0, 0, 0]]]
